24
Route #1: 1 10 21 
Route #2: 2 13 
Route #3: 3 
Route #4: 4 11 27 
Route #5: 5 19 25 
Route #6: 6 16 23 
Route #7: 7 15 
Route #8: 8 17 22 
Route #9: 9 12 24 
Route #10: 14 31 
Route #11: 18 28 
Route #12: 20 
Route #13: 26 33 
Route #14: 29 34 
Route #15: 30 36 
Route #16: 32 35 38 42 
Route #17: 37 44 
Route #18: 39 41 50 
Route #19: 40 46 
Route #20: 43 
Route #21: 45 
Route #22: 47 
Route #23: 48 
Route #24: 49 
Cost 21207.0
